NAME          
ROWS
 N  OBJ
 L  c1
COLUMNS
    MARKER    'MARKER'                 'INTORG'
    x[1]      c1        452
    x[1]      OBJ       -304
    x[2]      c1        27
    x[2]      OBJ       -407
    x[3]      c1        395
    x[3]      OBJ       -465
    x[4]      c1        496
    x[4]      OBJ       -956
    x[5]      c1        525
    x[5]      OBJ       -262
    x[6]      c1        56
    x[6]      OBJ       -568
    x[7]      c1        865
    x[7]      OBJ       -492
    x[8]      c1        112
    x[8]      OBJ       -575
    x[9]      c1        398
    x[9]      OBJ       -755
    x[10]     c1        532
    x[10]     OBJ       -522
    x[11]     c1        454
    x[11]     OBJ       -479
    x[12]     c1        688
    x[12]     OBJ       -663
    x[13]     c1        780
    x[13]     OBJ       -799
    x[14]     c1        694
    x[14]     OBJ       -577
    x[15]     c1        511
    x[15]     OBJ       -780
    x[16]     c1        74
    x[16]     OBJ       -982
    x[17]     c1        97
    x[17]     OBJ       -155
    x[18]     c1        146
    x[18]     OBJ       -378
    x[19]     c1        504
    x[19]     OBJ       -457
    x[20]     c1        819
    x[20]     OBJ       -276
RHS
    rhs       c1        4312
RANGES
BOUNDS
 BV bounds    x[1]
 BV bounds    x[2]
 BV bounds    x[3]
 BV bounds    x[4]
 BV bounds    x[5]
 BV bounds    x[6]
 BV bounds    x[7]
 BV bounds    x[8]
 BV bounds    x[9]
 BV bounds    x[10]
 BV bounds    x[11]
 BV bounds    x[12]
 BV bounds    x[13]
 BV bounds    x[14]
 BV bounds    x[15]
 BV bounds    x[16]
 BV bounds    x[17]
 BV bounds    x[18]
 BV bounds    x[19]
 BV bounds    x[20]
ENDATA
